scheduleLength  = 7;
numberEmployees = 7;
numberShifts    = 3;
minDaysOff      = 1;
maxDaysOff      = 4;
minDaysWork     = 4;
maxDaysWork     = 7;
shiftNames      = ["D", "A", "N"];
minDaysShift    = [2, 2, 2];
maxDaysShift    = [6, 6, 6];

requirements = [| 2, 2, 2, 2, 2, 2, 0,
                | 2, 2, 2, 2, 2, 2, 0,
                | 2, 2, 2, 2, 2, 0, 2 |];

numberForbiddenShifts2 = 3;
forbiddenShifts2 = [| 3, 1,
                    | 3, 2,
                    | 2, 1 |];

numberForbiddenShifts3 = 4;
forbiddenShifts3 = [| 3, 3,
                    | 2, 1,
                    | 3, 2,
                    | 3, 1 |];

